c File: flat50_3_0.col
c
c SOURCE: Joseph Culberson (joe@cs.ualberta.ca)
c DESCRIPTION: Quasi-random coloring problem
c              generated with flatness = 0
c                             probability = 0.139
c                             known coloring = 3
c                             random seed = 1675
c              Creation Date:  Tue Jun  9 12:15:06 1998
c Maximum degree = 7 Minimum degree = 1
c p edge 50 115
c cnf created by edge2cnf
p cnf 150 545
-1 -2 0
-1 -3 0
-2 -3 0
1 2 3 0
-4 -5 0
-4 -6 0
-5 -6 0
4 5 6 0
-7 -8 0
-7 -9 0
-8 -9 0
7 8 9 0
-10 -11 0
-10 -12 0
-11 -12 0
10 11 12 0
-13 -14 0
-13 -15 0
-14 -15 0
13 14 15 0
-16 -17 0
-16 -18 0
-17 -18 0
16 17 18 0
-19 -20 0
-19 -21 0
-20 -21 0
19 20 21 0
-22 -23 0
-22 -24 0
-23 -24 0
22 23 24 0
-25 -26 0
-25 -27 0
-26 -27 0
25 26 27 0
-28 -29 0
-28 -30 0
-29 -30 0
28 29 30 0
-31 -32 0
-31 -33 0
-32 -33 0
31 32 33 0
-34 -35 0
-34 -36 0
-35 -36 0
34 35 36 0
-37 -38 0
-37 -39 0
-38 -39 0
37 38 39 0
-40 -41 0
-40 -42 0
-41 -42 0
40 41 42 0
-43 -44 0
-43 -45 0
-44 -45 0
43 44 45 0
-46 -47 0
-46 -48 0
-47 -48 0
46 47 48 0
-49 -50 0
-49 -51 0
-50 -51 0
49 50 51 0
-52 -53 0
-52 -54 0
-53 -54 0
52 53 54 0
-55 -56 0
-55 -57 0
-56 -57 0
55 56 57 0
-58 -59 0
-58 -60 0
-59 -60 0
58 59 60 0
-61 -62 0
-61 -63 0
-62 -63 0
61 62 63 0
-64 -65 0
-64 -66 0
-65 -66 0
64 65 66 0
-67 -68 0
-67 -69 0
-68 -69 0
67 68 69 0
-70 -71 0
-70 -72 0
-71 -72 0
70 71 72 0
-73 -74 0
-73 -75 0
-74 -75 0
73 74 75 0
-76 -77 0
-76 -78 0
-77 -78 0
76 77 78 0
-79 -80 0
-79 -81 0
-80 -81 0
79 80 81 0
-82 -83 0
-82 -84 0
-83 -84 0
82 83 84 0
-85 -86 0
-85 -87 0
-86 -87 0
85 86 87 0
-88 -89 0
-88 -90 0
-89 -90 0
88 89 90 0
-91 -92 0
-91 -93 0
-92 -93 0
91 92 93 0
-94 -95 0
-94 -96 0
-95 -96 0
94 95 96 0
-97 -98 0
-97 -99 0
-98 -99 0
97 98 99 0
-100 -101 0
-100 -102 0
-101 -102 0
100 101 102 0
-103 -104 0
-103 -105 0
-104 -105 0
103 104 105 0
-106 -107 0
-106 -108 0
-107 -108 0
106 107 108 0
-109 -110 0
-109 -111 0
-110 -111 0
109 110 111 0
-112 -113 0
-112 -114 0
-113 -114 0
112 113 114 0
-115 -116 0
-115 -117 0
-116 -117 0
115 116 117 0
-118 -119 0
-118 -120 0
-119 -120 0
118 119 120 0
-121 -122 0
-121 -123 0
-122 -123 0
121 122 123 0
-124 -125 0
-124 -126 0
-125 -126 0
124 125 126 0
-127 -128 0
-127 -129 0
-128 -129 0
127 128 129 0
-130 -131 0
-130 -132 0
-131 -132 0
130 131 132 0
-133 -134 0
-133 -135 0
-134 -135 0
133 134 135 0
-136 -137 0
-136 -138 0
-137 -138 0
136 137 138 0
-139 -140 0
-139 -141 0
-140 -141 0
139 140 141 0
-142 -143 0
-142 -144 0
-143 -144 0
142 143 144 0
-145 -146 0
-145 -147 0
-146 -147 0
145 146 147 0
-148 -149 0
-148 -150 0
-149 -150 0
148 149 150 0
-100 -1 0
-101 -2 0
-102 -3 0
-139 -1 0
-140 -2 0
-141 -3 0
-145 -1 0
-146 -2 0
-147 -3 0
-64 -4 0
-65 -5 0
-66 -6 0
-67 -4 0
-68 -5 0
-69 -6 0
-115 -4 0
-116 -5 0
-117 -6 0
-88 -7 0
-89 -8 0
-90 -9 0
-121 -7 0
-122 -8 0
-123 -9 0
-148 -7 0
-149 -8 0
-150 -9 0
-73 -10 0
-74 -11 0
-75 -12 0
-103 -10 0
-104 -11 0
-105 -12 0
-115 -10 0
-116 -11 0
-117 -12 0
-124 -10 0
-125 -11 0
-126 -12 0
-142 -10 0
-143 -11 0
-144 -12 0
-94 -13 0
-95 -14 0
-96 -15 0
-136 -13 0
-137 -14 0
-138 -15 0
-82 -16 0
-83 -17 0
-84 -18 0
-97 -16 0
-98 -17 0
-99 -18 0
-106 -16 0
-107 -17 0
-108 -18 0
-55 -19 0
-56 -20 0
-57 -21 0
-61 -19 0
-62 -20 0
-63 -21 0
-67 -19 0
-68 -20 0
-69 -21 0
-82 -19 0
-83 -20 0
-84 -21 0
-112 -19 0
-113 -20 0
-114 -21 0
-64 -22 0
-65 -23 0
-66 -24 0
-73 -22 0
-74 -23 0
-75 -24 0
-76 -22 0
-77 -23 0
-78 -24 0
-103 -22 0
-104 -23 0
-105 -24 0
-106 -22 0
-107 -23 0
-108 -24 0
-64 -25 0
-65 -26 0
-66 -27 0
-88 -25 0
-89 -26 0
-90 -27 0
-121 -25 0
-122 -26 0
-123 -27 0
-52 -28 0
-53 -29 0
-54 -30 0
-79 -28 0
-80 -29 0
-81 -30 0
-88 -28 0
-89 -29 0
-90 -30 0
-118 -28 0
-119 -29 0
-120 -30 0
-67 -31 0
-68 -32 0
-69 -33 0
-79 -31 0
-80 -32 0
-81 -33 0
-94 -31 0
-95 -32 0
-96 -33 0
-118 -31 0
-119 -32 0
-120 -33 0
-121 -31 0
-122 -32 0
-123 -33 0
-124 -31 0
-125 -32 0
-126 -33 0
-76 -34 0
-77 -35 0
-78 -36 0
-79 -34 0
-80 -35 0
-81 -36 0
-106 -34 0
-107 -35 0
-108 -36 0
-112 -34 0
-113 -35 0
-114 -36 0
-130 -34 0
-131 -35 0
-132 -36 0
-88 -37 0
-89 -38 0
-90 -39 0
-91 -37 0
-92 -38 0
-93 -39 0
-94 -37 0
-95 -38 0
-96 -39 0
-100 -37 0
-101 -38 0
-102 -39 0
-112 -37 0
-113 -38 0
-114 -39 0
-139 -37 0
-140 -38 0
-141 -39 0
-142 -37 0
-143 -38 0
-144 -39 0
-67 -40 0
-68 -41 0
-69 -42 0
-94 -40 0
-95 -41 0
-96 -42 0
-100 -40 0
-101 -41 0
-102 -42 0
-142 -40 0
-143 -41 0
-144 -42 0
-145 -40 0
-146 -41 0
-147 -42 0
-73 -43 0
-74 -44 0
-75 -45 0
-76 -43 0
-77 -44 0
-78 -45 0
-91 -43 0
-92 -44 0
-93 -45 0
-103 -43 0
-104 -44 0
-105 -45 0
-115 -43 0
-116 -44 0
-117 -45 0
-118 -43 0
-119 -44 0
-120 -45 0
-127 -43 0
-128 -44 0
-129 -45 0
-73 -46 0
-74 -47 0
-75 -48 0
-82 -46 0
-83 -47 0
-84 -48 0
-100 -46 0
-101 -47 0
-102 -48 0
-109 -46 0
-110 -47 0
-111 -48 0
-115 -46 0
-116 -47 0
-117 -48 0
-148 -46 0
-149 -47 0
-150 -48 0
-55 -49 0
-56 -50 0
-57 -51 0
-85 -49 0
-86 -50 0
-87 -51 0
-106 -49 0
-107 -50 0
-108 -51 0
-136 -49 0
-137 -50 0
-138 -51 0
-148 -49 0
-149 -50 0
-150 -51 0
-124 -52 0
-125 -53 0
-126 -54 0
-103 -55 0
-104 -56 0
-105 -57 0
-124 -55 0
-125 -56 0
-126 -57 0
-103 -58 0
-104 -59 0
-105 -60 0
-109 -58 0
-110 -59 0
-111 -60 0
-112 -58 0
-113 -59 0
-114 -60 0
-136 -58 0
-137 -59 0
-138 -60 0
-106 -64 0
-107 -65 0
-108 -66 0
-139 -64 0
-140 -65 0
-141 -66 0
-103 -67 0
-104 -68 0
-105 -69 0
-118 -67 0
-119 -68 0
-120 -69 0
-127 -67 0
-128 -68 0
-129 -69 0
-148 -70 0
-149 -71 0
-150 -72 0
-112 -73 0
-113 -74 0
-114 -75 0
-145 -73 0
-146 -74 0
-147 -75 0
-106 -76 0
-107 -77 0
-108 -78 0
-124 -76 0
-125 -77 0
-126 -78 0
-127 -76 0
-128 -77 0
-129 -78 0
-139 -76 0
-140 -77 0
-141 -78 0
-109 -82 0
-110 -83 0
-111 -84 0
-121 -82 0
-122 -83 0
-123 -84 0
-118 -85 0
-119 -86 0
-120 -87 0
-127 -85 0
-128 -86 0
-129 -87 0
-130 -85 0
-131 -86 0
-132 -87 0
-133 -85 0
-134 -86 0
-135 -87 0
-121 -88 0
-122 -89 0
-123 -90 0
-127 -88 0
-128 -89 0
-129 -90 0
-136 -88 0
-137 -89 0
-138 -90 0
-103 -91 0
-104 -92 0
-105 -93 0
-112 -91 0
-113 -92 0
-114 -93 0
-115 -91 0
-116 -92 0
-117 -93 0
-121 -94 0
-122 -95 0
-123 -96 0
-145 -94 0
-146 -95 0
-147 -96 0
-139 -97 0
-140 -98 0
-141 -99 0
-145 -97 0
-146 -98 0
-147 -99 0
-124 -100 0
-125 -101 0
-126 -102 0
-130 -100 0
-131 -101 0
-132 -102 0
-145 -100 0
-146 -101 0
-147 -102 0
